34
 1 374 11
 2 102 3
 3 374 11
 4 646 19
 5 476 14
 6 306 9
 7 510 15
 8 340 10
 9 204 6
 10 646 19
 11 340 10
 12 544 16
 13 68 2
 14 68 2
 15 476 14
 16 408 12
 17 476 14
 18 204 6
 19 680 20
 20 578 17
 21 442 13
 22 476 14
 23 442 13
 24 102 3
 25 68 2
 26 442 13
 27 578 17
 28 646 19
 29 102 3
 30 34 1
 31 578 17
 32 408 12
 33 204 6
 34 136 4
34